<instance format="XCSP3" type="COP">
  <variables>
    <array id="s" note="Start time of operation j for job i" size="[15][15]"> 0..1050 </array>
    <array id="e" note="End time of last operation of job i" size="[15]"> 0..1050 </array>
    <array id="d" note="Duration of operation j for job i" size="[15][15]">
      <domain for="d[0][]"> 4 6 8 9 11 24 26 32 33 43 45 61 83 97 99 </domain>
      <domain for="d[1][]"> 1 14 22 25 38 42 53..55 57 61 62 70 74 92 </domain>
      <domain for="d[2][]"> 5 9 11 17 29 30 38 45 65 74 79 84 85 95 </domain>
      <domain for="d[3][]"> 11 12 16 37 52 55 56 61 78 79 89 95 </domain>
      <domain for="d[4][]"> 1 2 7 8 10 13 14 21 28 35 42 74 76 82 84 </domain>
      <domain for="d[5][]"> 4 6 9 22 30 43 46 52 63 72 82 93 </domain>
      <domain for="d[6][]"> 2 13 16 18 37 39 61 62 66 69 84 85 94 99 </domain>
      <domain for="d[7][]"> 1 32 39 51 55..57 59 64 72 78 81 85 90 </domain>
      <domain for="d[8][]"> 11 18 22 23 33 39 40 43 59 73 81 83 86 94 99 </domain>
      <domain for="d[9][]"> 2 4 10 25 43 63 66 70 72 75 85 92 97 </domain>
      <domain for="d[10][]"> 5 12 33 46 50 51 59 60 62 74 78 79 89 97 </domain>
      <domain for="d[11][]"> 5 7 20 22 24 31 34 44 57 60 61 75 </domain>
      <domain for="d[12][]"> 3 11 34 35 38 39 47 50 62 80 90 91 95 96 </domain>
      <domain for="d[13][]"> 14 21 27 29 35 37 53 58 75 83 84 90 93 98 99 </domain>
      <domain for="d[14][]"> 10 13 14 30 33 36 41 46 51 52 67 77 88 96 </domain>
    </array>
    <array id="w" note="Which machine for operation j of job i" size="[15][15]"> 0..14 </array>
    <array id="sd" note="Start (dual) time of job i, machine k" size="[15][15]"> 0..1050 </array>
  </variables>
  <constraints>
    <group>
      <intension> eq(%0,add(%1,%2)) </intension>
      <args> e[0] s[0][14] d[0][14] </args>
      <args> e[1] s[1][14] d[1][14] </args>
      <args> e[2] s[2][14] d[2][14] </args>
      <args> e[3] s[3][14] d[3][14] </args>
      <args> e[4] s[4][14] d[4][14] </args>
      <args> e[5] s[5][14] d[5][14] </args>
      <args> e[6] s[6][14] d[6][14] </args>
      <args> e[7] s[7][14] d[7][14] </args>
      <args> e[8] s[8][14] d[8][14] </args>
      <args> e[9] s[9][14] d[9][14] </args>
      <args> e[10] s[10][14] d[10][14] </args>
      <args> e[11] s[11][14] d[11][14] </args>
      <args> e[12] s[12][14] d[12][14] </args>
      <args> e[13] s[13][14] d[13][14] </args>
      <args> e[14] s[14][14] d[14][14] </args>
    </group>
    <group>
      <allDifferent> %... </allDifferent>
      <args> w[0][] </args>
      <args> w[1][] </args>
      <args> w[2][] </args>
      <args> w[3][] </args>
      <args> w[4][] </args>
      <args> w[5][] </args>
      <args> w[6][] </args>
      <args> w[7][] </args>
      <args> w[8][] </args>
      <args> w[9][] </args>
      <args> w[10][] </args>
      <args> w[11][] </args>
      <args> w[12][] </args>
      <args> w[13][] </args>
      <args> w[14][] </args>
    </group>
    <block>
      <group>
        <extension>
          <list> %0 %1 </list>
          <supports> (0,8)(1,6)(2,61)(3,32)(4,45)(5,83)(6,9)(7,24)(8,26)(9,43)(10,99)(11,4)(12,11)(13,97)(14,33) </supports>
        </extension>
        <args> w[0][0] d[0][0] </args>
        <args> w[0][1] d[0][1] </args>
        <args> w[0][2] d[0][2] </args>
        <args> w[0][3] d[0][3] </args>
        <args> w[0][4] d[0][4] </args>
        <args> w[0][5] d[0][5] </args>
        <args> w[0][6] d[0][6] </args>
        <args> w[0][7] d[0][7] </args>
        <args> w[0][8] d[0][8] </args>
        <args> w[0][9] d[0][9] </args>
        <args> w[0][10] d[0][10] </args>
        <args> w[0][11] d[0][11] </args>
        <args> w[0][12] d[0][12] </args>
        <args> w[0][13] d[0][13] </args>
        <args> w[0][14] d[0][14] </args>
      </group>
      <group>
        <extension>
          <list> %0 %1 </list>
          <supports> (0,42)(1,57)(2,74)(3,53)(4,22)(5,55)(6,1)(7,38)(8,92)(9,54)(10,61)(11,25)(12,14)(13,70)(14,62) </supports>
        </extension>
        <args> w[1][0] d[1][0] </args>
        <args> w[1][1] d[1][1] </args>
        <args> w[1][2] d[1][2] </args>
        <args> w[1][3] d[1][3] </args>
        <args> w[1][4] d[1][4] </args>
        <args> w[1][5] d[1][5] </args>
        <args> w[1][6] d[1][6] </args>
        <args> w[1][7] d[1][7] </args>
        <args> w[1][8] d[1][8] </args>
        <args> w[1][9] d[1][9] </args>
        <args> w[1][10] d[1][10] </args>
        <args> w[1][11] d[1][11] </args>
        <args> w[1][12] d[1][12] </args>
        <args> w[1][13] d[1][13] </args>
        <args> w[1][14] d[1][14] </args>
      </group>
      <group>
        <extension>
          <list> %0 %1 </list>
          <supports> (0,29)(1,11)(2,5)(3,85)(4,79)(5,17)(6,84)(7,74)(8,30)(9,95)(10,45)(11,30)(12,9)(13,65)(14,38) </supports>
        </extension>
        <args> w[2][0] d[2][0] </args>
        <args> w[2][1] d[2][1] </args>
        <args> w[2][2] d[2][2] </args>
        <args> w[2][3] d[2][3] </args>
        <args> w[2][4] d[2][4] </args>
        <args> w[2][5] d[2][5] </args>
        <args> w[2][6] d[2][6] </args>
        <args> w[2][7] d[2][7] </args>
        <args> w[2][8] d[2][8] </args>
        <args> w[2][9] d[2][9] </args>
        <args> w[2][10] d[2][10] </args>
        <args> w[2][11] d[2][11] </args>
        <args> w[2][12] d[2][12] </args>
        <args> w[2][13] d[2][13] </args>
        <args> w[2][14] d[2][14] </args>
      </group>
      <group>
        <extension>
          <list> %0 %1 </list>
          <supports> (0,52)(1,16)(2,37)(3,95)(4,79)(5,11)(6,61)(7,89)(8,95)(9,78)(10,55)(11,56)(12,12)(13,95)(14,12) </supports>
        </extension>
        <args> w[3][0] d[3][0] </args>
        <args> w[3][1] d[3][1] </args>
        <args> w[3][2] d[3][2] </args>
        <args> w[3][3] d[3][3] </args>
        <args> w[3][4] d[3][4] </args>
        <args> w[3][5] d[3][5] </args>
        <args> w[3][6] d[3][6] </args>
        <args> w[3][7] d[3][7] </args>
        <args> w[3][8] d[3][8] </args>
        <args> w[3][9] d[3][9] </args>
        <args> w[3][10] d[3][10] </args>
        <args> w[3][11] d[3][11] </args>
        <args> w[3][12] d[3][12] </args>
        <args> w[3][13] d[3][13] </args>
        <args> w[3][14] d[3][14] </args>
      </group>
      <group>
        <extension>
          <list> %0 %1 </list>
          <supports> (0,42)(1,2)(2,28)(3,14)(4,84)(5,21)(6,13)(7,10)(8,74)(9,76)(10,8)(11,82)(12,35)(13,7)(14,1) </supports>
        </extension>
        <args> w[4][0] d[4][0] </args>
        <args> w[4][1] d[4][1] </args>
        <args> w[4][2] d[4][2] </args>
        <args> w[4][3] d[4][3] </args>
        <args> w[4][4] d[4][4] </args>
        <args> w[4][5] d[4][5] </args>
        <args> w[4][6] d[4][6] </args>
        <args> w[4][7] d[4][7] </args>
        <args> w[4][8] d[4][8] </args>
        <args> w[4][9] d[4][9] </args>
        <args> w[4][10] d[4][10] </args>
        <args> w[4][11] d[4][11] </args>
        <args> w[4][12] d[4][12] </args>
        <args> w[4][13] d[4][13] </args>
        <args> w[4][14] d[4][14] </args>
      </group>
      <group>
        <extension>
          <list> %0 %1 </list>
          <supports> (0,63)(1,4)(2,93)(3,93)(4,46)(5,82)(6,52)(7,22)(8,46)(9,6)(10,22)(11,30)(12,43)(13,9)(14,72) </supports>
        </extension>
        <args> w[5][0] d[5][0] </args>
        <args> w[5][1] d[5][1] </args>
        <args> w[5][2] d[5][2] </args>
        <args> w[5][3] d[5][3] </args>
        <args> w[5][4] d[5][4] </args>
        <args> w[5][5] d[5][5] </args>
        <args> w[5][6] d[5][6] </args>
        <args> w[5][7] d[5][7] </args>
        <args> w[5][8] d[5][8] </args>
        <args> w[5][9] d[5][9] </args>
        <args> w[5][10] d[5][10] </args>
        <args> w[5][11] d[5][11] </args>
        <args> w[5][12] d[5][12] </args>
        <args> w[5][13] d[5][13] </args>
        <args> w[5][14] d[5][14] </args>
      </group>
      <group>
        <extension>
          <list> %0 %1 </list>
          <supports> (0,13)(1,16)(2,84)(3,37)(4,39)(5,85)(6,99)(7,94)(8,66)(9,61)(10,94)(11,2)(12,18)(13,69)(14,62) </supports>
        </extension>
        <args> w[6][0] d[6][0] </args>
        <args> w[6][1] d[6][1] </args>
        <args> w[6][2] d[6][2] </args>
        <args> w[6][3] d[6][3] </args>
        <args> w[6][4] d[6][4] </args>
        <args> w[6][5] d[6][5] </args>
        <args> w[6][6] d[6][6] </args>
        <args> w[6][7] d[6][7] </args>
        <args> w[6][8] d[6][8] </args>
        <args> w[6][9] d[6][9] </args>
        <args> w[6][10] d[6][10] </args>
        <args> w[6][11] d[6][11] </args>
        <args> w[6][12] d[6][12] </args>
        <args> w[6][13] d[6][13] </args>
        <args> w[6][14] d[6][14] </args>
      </group>
      <group>
        <extension>
          <list> %0 %1 </list>
          <supports> (0,57)(1,1)(2,78)(3,51)(4,55)(5,85)(6,81)(7,90)(8,32)(9,64)(10,56)(11,39)(12,59)(13,72)(14,64) </supports>
        </extension>
        <args> w[7][0] d[7][0] </args>
        <args> w[7][1] d[7][1] </args>
        <args> w[7][2] d[7][2] </args>
        <args> w[7][3] d[7][3] </args>
        <args> w[7][4] d[7][4] </args>
        <args> w[7][5] d[7][5] </args>
        <args> w[7][6] d[7][6] </args>
        <args> w[7][7] d[7][7] </args>
        <args> w[7][8] d[7][8] </args>
        <args> w[7][9] d[7][9] </args>
        <args> w[7][10] d[7][10] </args>
        <args> w[7][11] d[7][11] </args>
        <args> w[7][12] d[7][12] </args>
        <args> w[7][13] d[7][13] </args>
        <args> w[7][14] d[7][14] </args>
      </group>
      <group>
        <extension>
          <list> %0 %1 </list>
          <supports> (0,81)(1,86)(2,59)(3,11)(4,83)(5,23)(6,73)(7,99)(8,39)(9,22)(10,43)(11,18)(12,94)(13,40)(14,33) </supports>
        </extension>
        <args> w[8][0] d[8][0] </args>
        <args> w[8][1] d[8][1] </args>
        <args> w[8][2] d[8][2] </args>
        <args> w[8][3] d[8][3] </args>
        <args> w[8][4] d[8][4] </args>
        <args> w[8][5] d[8][5] </args>
        <args> w[8][6] d[8][6] </args>
        <args> w[8][7] d[8][7] </args>
        <args> w[8][8] d[8][8] </args>
        <args> w[8][9] d[8][9] </args>
        <args> w[8][10] d[8][10] </args>
        <args> w[8][11] d[8][11] </args>
        <args> w[8][12] d[8][12] </args>
        <args> w[8][13] d[8][13] </args>
        <args> w[8][14] d[8][14] </args>
      </group>
      <group>
        <extension>
          <list> %0 %1 </list>
          <supports> (0,85)(1,75)(2,10)(3,70)(4,92)(5,25)(6,72)(7,75)(8,66)(9,2)(10,43)(11,4)(12,97)(13,63)(14,72) </supports>
        </extension>
        <args> w[9][0] d[9][0] </args>
        <args> w[9][1] d[9][1] </args>
        <args> w[9][2] d[9][2] </args>
        <args> w[9][3] d[9][3] </args>
        <args> w[9][4] d[9][4] </args>
        <args> w[9][5] d[9][5] </args>
        <args> w[9][6] d[9][6] </args>
        <args> w[9][7] d[9][7] </args>
        <args> w[9][8] d[9][8] </args>
        <args> w[9][9] d[9][9] </args>
        <args> w[9][10] d[9][10] </args>
        <args> w[9][11] d[9][11] </args>
        <args> w[9][12] d[9][12] </args>
        <args> w[9][13] d[9][13] </args>
        <args> w[9][14] d[9][14] </args>
      </group>
      <group>
        <extension>
          <list> %0 %1 </list>
          <supports> (0,46)(1,51)(2,50)(3,5)(4,97)(5,78)(6,60)(7,74)(8,89)(9,12)(10,62)(11,12)(12,59)(13,33)(14,79) </supports>
        </extension>
        <args> w[10][0] d[10][0] </args>
        <args> w[10][1] d[10][1] </args>
        <args> w[10][2] d[10][2] </args>
        <args> w[10][3] d[10][3] </args>
        <args> w[10][4] d[10][4] </args>
        <args> w[10][5] d[10][5] </args>
        <args> w[10][6] d[10][6] </args>
        <args> w[10][7] d[10][7] </args>
        <args> w[10][8] d[10][8] </args>
        <args> w[10][9] d[10][9] </args>
        <args> w[10][10] d[10][10] </args>
        <args> w[10][11] d[10][11] </args>
        <args> w[10][12] d[10][12] </args>
        <args> w[10][13] d[10][13] </args>
        <args> w[10][14] d[10][14] </args>
      </group>
      <group>
        <extension>
          <list> %0 %1 </list>
          <supports> (0,60)(1,75)(2,31)(3,57)(4,20)(5,5)(6,22)(7,7)(8,61)(9,20)(10,20)(11,24)(12,60)(13,44)(14,34) </supports>
        </extension>
        <args> w[11][0] d[11][0] </args>
        <args> w[11][1] d[11][1] </args>
        <args> w[11][2] d[11][2] </args>
        <args> w[11][3] d[11][3] </args>
        <args> w[11][4] d[11][4] </args>
        <args> w[11][5] d[11][5] </args>
        <args> w[11][6] d[11][6] </args>
        <args> w[11][7] d[11][7] </args>
        <args> w[11][8] d[11][8] </args>
        <args> w[11][9] d[11][9] </args>
        <args> w[11][10] d[11][10] </args>
        <args> w[11][11] d[11][11] </args>
        <args> w[11][12] d[11][12] </args>
        <args> w[11][13] d[11][13] </args>
        <args> w[11][14] d[11][14] </args>
      </group>
      <group>
        <extension>
          <list> %0 %1 </list>
          <supports> (0,11)(1,3)(2,62)(3,50)(4,38)(5,47)(6,35)(7,96)(8,34)(9,39)(10,90)(11,80)(12,91)(13,95)(14,38) </supports>
        </extension>
        <args> w[12][0] d[12][0] </args>
        <args> w[12][1] d[12][1] </args>
        <args> w[12][2] d[12][2] </args>
        <args> w[12][3] d[12][3] </args>
        <args> w[12][4] d[12][4] </args>
        <args> w[12][5] d[12][5] </args>
        <args> w[12][6] d[12][6] </args>
        <args> w[12][7] d[12][7] </args>
        <args> w[12][8] d[12][8] </args>
        <args> w[12][9] d[12][9] </args>
        <args> w[12][10] d[12][10] </args>
        <args> w[12][11] d[12][11] </args>
        <args> w[12][12] d[12][12] </args>
        <args> w[12][13] d[12][13] </args>
        <args> w[12][14] d[12][14] </args>
      </group>
      <group>
        <extension>
          <list> %0 %1 </list>
          <supports> (0,14)(1,90)(2,27)(3,84)(4,35)(5,75)(6,99)(7,93)(8,98)(9,21)(10,58)(11,53)(12,83)(13,37)(14,29) </supports>
        </extension>
        <args> w[13][0] d[13][0] </args>
        <args> w[13][1] d[13][1] </args>
        <args> w[13][2] d[13][2] </args>
        <args> w[13][3] d[13][3] </args>
        <args> w[13][4] d[13][4] </args>
        <args> w[13][5] d[13][5] </args>
        <args> w[13][6] d[13][6] </args>
        <args> w[13][7] d[13][7] </args>
        <args> w[13][8] d[13][8] </args>
        <args> w[13][9] d[13][9] </args>
        <args> w[13][10] d[13][10] </args>
        <args> w[13][11] d[13][11] </args>
        <args> w[13][12] d[13][12] </args>
        <args> w[13][13] d[13][13] </args>
        <args> w[13][14] d[13][14] </args>
      </group>
      <group>
        <extension>
          <list> %0 %1 </list>
          <supports> (0,88)(1,13)(2,77)(3,41)(4,51)(5,36)(6,88)(7,14)(8,10)(9,96)(10,67)(11,33)(12,52)(13,30)(14,46) </supports>
        </extension>
        <args> w[14][0] d[14][0] </args>
        <args> w[14][1] d[14][1] </args>
        <args> w[14][2] d[14][2] </args>
        <args> w[14][3] d[14][3] </args>
        <args> w[14][4] d[14][4] </args>
        <args> w[14][5] d[14][5] </args>
        <args> w[14][6] d[14][6] </args>
        <args> w[14][7] d[14][7] </args>
        <args> w[14][8] d[14][8] </args>
        <args> w[14][9] d[14][9] </args>
        <args> w[14][10] d[14][10] </args>
        <args> w[14][11] d[14][11] </args>
        <args> w[14][12] d[14][12] </args>
        <args> w[14][13] d[14][13] </args>
        <args> w[14][14] d[14][14] </args>
      </group>
    </block>
    <group>
      <intension> le(add(%0,%1),%2) </intension>
      <args> s[0][0] d[0][0] s[0][1] </args>
      <args> s[0][1] d[0][1] s[0][2] </args>
      <args> s[0][2] d[0][2] s[0][3] </args>
      <args> s[0][3] d[0][3] s[0][4] </args>
      <args> s[0][4] d[0][4] s[0][5] </args>
      <args> s[0][5] d[0][5] s[0][6] </args>
      <args> s[0][6] d[0][6] s[0][7] </args>
      <args> s[0][7] d[0][7] s[0][8] </args>
      <args> s[0][8] d[0][8] s[0][9] </args>
      <args> s[0][9] d[0][9] s[0][10] </args>
      <args> s[0][10] d[0][10] s[0][11] </args>
      <args> s[0][11] d[0][11] s[0][12] </args>
      <args> s[0][12] d[0][12] s[0][13] </args>
      <args> s[0][13] d[0][13] s[0][14] </args>
      <args> s[1][0] d[1][0] s[1][1] </args>
      <args> s[1][1] d[1][1] s[1][2] </args>
      <args> s[1][2] d[1][2] s[1][3] </args>
      <args> s[1][3] d[1][3] s[1][4] </args>
      <args> s[1][4] d[1][4] s[1][5] </args>
      <args> s[1][5] d[1][5] s[1][6] </args>
      <args> s[1][6] d[1][6] s[1][7] </args>
      <args> s[1][7] d[1][7] s[1][8] </args>
      <args> s[1][8] d[1][8] s[1][9] </args>
      <args> s[1][9] d[1][9] s[1][10] </args>
      <args> s[1][10] d[1][10] s[1][11] </args>
      <args> s[1][11] d[1][11] s[1][12] </args>
      <args> s[1][12] d[1][12] s[1][13] </args>
      <args> s[1][13] d[1][13] s[1][14] </args>
      <args> s[2][0] d[2][0] s[2][1] </args>
      <args> s[2][1] d[2][1] s[2][2] </args>
      <args> s[2][2] d[2][2] s[2][3] </args>
      <args> s[2][3] d[2][3] s[2][4] </args>
      <args> s[2][4] d[2][4] s[2][5] </args>
      <args> s[2][5] d[2][5] s[2][6] </args>
      <args> s[2][6] d[2][6] s[2][7] </args>
      <args> s[2][7] d[2][7] s[2][8] </args>
      <args> s[2][8] d[2][8] s[2][9] </args>
      <args> s[2][9] d[2][9] s[2][10] </args>
      <args> s[2][10] d[2][10] s[2][11] </args>
      <args> s[2][11] d[2][11] s[2][12] </args>
      <args> s[2][12] d[2][12] s[2][13] </args>
      <args> s[2][13] d[2][13] s[2][14] </args>
      <args> s[3][0] d[3][0] s[3][1] </args>
      <args> s[3][1] d[3][1] s[3][2] </args>
      <args> s[3][2] d[3][2] s[3][3] </args>
      <args> s[3][3] d[3][3] s[3][4] </args>
      <args> s[3][4] d[3][4] s[3][5] </args>
      <args> s[3][5] d[3][5] s[3][6] </args>
      <args> s[3][6] d[3][6] s[3][7] </args>
      <args> s[3][7] d[3][7] s[3][8] </args>
      <args> s[3][8] d[3][8] s[3][9] </args>
      <args> s[3][9] d[3][9] s[3][10] </args>
      <args> s[3][10] d[3][10] s[3][11] </args>
      <args> s[3][11] d[3][11] s[3][12] </args>
      <args> s[3][12] d[3][12] s[3][13] </args>
      <args> s[3][13] d[3][13] s[3][14] </args>
      <args> s[4][0] d[4][0] s[4][1] </args>
      <args> s[4][1] d[4][1] s[4][2] </args>
      <args> s[4][2] d[4][2] s[4][3] </args>
      <args> s[4][3] d[4][3] s[4][4] </args>
      <args> s[4][4] d[4][4] s[4][5] </args>
      <args> s[4][5] d[4][5] s[4][6] </args>
      <args> s[4][6] d[4][6] s[4][7] </args>
      <args> s[4][7] d[4][7] s[4][8] </args>
      <args> s[4][8] d[4][8] s[4][9] </args>
      <args> s[4][9] d[4][9] s[4][10] </args>
      <args> s[4][10] d[4][10] s[4][11] </args>
      <args> s[4][11] d[4][11] s[4][12] </args>
      <args> s[4][12] d[4][12] s[4][13] </args>
      <args> s[4][13] d[4][13] s[4][14] </args>
      <args> s[5][0] d[5][0] s[5][1] </args>
      <args> s[5][1] d[5][1] s[5][2] </args>
      <args> s[5][2] d[5][2] s[5][3] </args>
      <args> s[5][3] d[5][3] s[5][4] </args>
      <args> s[5][4] d[5][4] s[5][5] </args>
      <args> s[5][5] d[5][5] s[5][6] </args>
      <args> s[5][6] d[5][6] s[5][7] </args>
      <args> s[5][7] d[5][7] s[5][8] </args>
      <args> s[5][8] d[5][8] s[5][9] </args>
      <args> s[5][9] d[5][9] s[5][10] </args>
      <args> s[5][10] d[5][10] s[5][11] </args>
      <args> s[5][11] d[5][11] s[5][12] </args>
      <args> s[5][12] d[5][12] s[5][13] </args>
      <args> s[5][13] d[5][13] s[5][14] </args>
      <args> s[6][0] d[6][0] s[6][1] </args>
      <args> s[6][1] d[6][1] s[6][2] </args>
      <args> s[6][2] d[6][2] s[6][3] </args>
      <args> s[6][3] d[6][3] s[6][4] </args>
      <args> s[6][4] d[6][4] s[6][5] </args>
      <args> s[6][5] d[6][5] s[6][6] </args>
      <args> s[6][6] d[6][6] s[6][7] </args>
      <args> s[6][7] d[6][7] s[6][8] </args>
      <args> s[6][8] d[6][8] s[6][9] </args>
      <args> s[6][9] d[6][9] s[6][10] </args>
      <args> s[6][10] d[6][10] s[6][11] </args>
      <args> s[6][11] d[6][11] s[6][12] </args>
      <args> s[6][12] d[6][12] s[6][13] </args>
      <args> s[6][13] d[6][13] s[6][14] </args>
      <args> s[7][0] d[7][0] s[7][1] </args>
      <args> s[7][1] d[7][1] s[7][2] </args>
      <args> s[7][2] d[7][2] s[7][3] </args>
      <args> s[7][3] d[7][3] s[7][4] </args>
      <args> s[7][4] d[7][4] s[7][5] </args>
      <args> s[7][5] d[7][5] s[7][6] </args>
      <args> s[7][6] d[7][6] s[7][7] </args>
      <args> s[7][7] d[7][7] s[7][8] </args>
      <args> s[7][8] d[7][8] s[7][9] </args>
      <args> s[7][9] d[7][9] s[7][10] </args>
      <args> s[7][10] d[7][10] s[7][11] </args>
      <args> s[7][11] d[7][11] s[7][12] </args>
      <args> s[7][12] d[7][12] s[7][13] </args>
      <args> s[7][13] d[7][13] s[7][14] </args>
      <args> s[8][0] d[8][0] s[8][1] </args>
      <args> s[8][1] d[8][1] s[8][2] </args>
      <args> s[8][2] d[8][2] s[8][3] </args>
      <args> s[8][3] d[8][3] s[8][4] </args>
      <args> s[8][4] d[8][4] s[8][5] </args>
      <args> s[8][5] d[8][5] s[8][6] </args>
      <args> s[8][6] d[8][6] s[8][7] </args>
      <args> s[8][7] d[8][7] s[8][8] </args>
      <args> s[8][8] d[8][8] s[8][9] </args>
      <args> s[8][9] d[8][9] s[8][10] </args>
      <args> s[8][10] d[8][10] s[8][11] </args>
      <args> s[8][11] d[8][11] s[8][12] </args>
      <args> s[8][12] d[8][12] s[8][13] </args>
      <args> s[8][13] d[8][13] s[8][14] </args>
      <args> s[9][0] d[9][0] s[9][1] </args>
      <args> s[9][1] d[9][1] s[9][2] </args>
      <args> s[9][2] d[9][2] s[9][3] </args>
      <args> s[9][3] d[9][3] s[9][4] </args>
      <args> s[9][4] d[9][4] s[9][5] </args>
      <args> s[9][5] d[9][5] s[9][6] </args>
      <args> s[9][6] d[9][6] s[9][7] </args>
      <args> s[9][7] d[9][7] s[9][8] </args>
      <args> s[9][8] d[9][8] s[9][9] </args>
      <args> s[9][9] d[9][9] s[9][10] </args>
      <args> s[9][10] d[9][10] s[9][11] </args>
      <args> s[9][11] d[9][11] s[9][12] </args>
      <args> s[9][12] d[9][12] s[9][13] </args>
      <args> s[9][13] d[9][13] s[9][14] </args>
      <args> s[10][0] d[10][0] s[10][1] </args>
      <args> s[10][1] d[10][1] s[10][2] </args>
      <args> s[10][2] d[10][2] s[10][3] </args>
      <args> s[10][3] d[10][3] s[10][4] </args>
      <args> s[10][4] d[10][4] s[10][5] </args>
      <args> s[10][5] d[10][5] s[10][6] </args>
      <args> s[10][6] d[10][6] s[10][7] </args>
      <args> s[10][7] d[10][7] s[10][8] </args>
      <args> s[10][8] d[10][8] s[10][9] </args>
      <args> s[10][9] d[10][9] s[10][10] </args>
      <args> s[10][10] d[10][10] s[10][11] </args>
      <args> s[10][11] d[10][11] s[10][12] </args>
      <args> s[10][12] d[10][12] s[10][13] </args>
      <args> s[10][13] d[10][13] s[10][14] </args>
      <args> s[11][0] d[11][0] s[11][1] </args>
      <args> s[11][1] d[11][1] s[11][2] </args>
      <args> s[11][2] d[11][2] s[11][3] </args>
      <args> s[11][3] d[11][3] s[11][4] </args>
      <args> s[11][4] d[11][4] s[11][5] </args>
      <args> s[11][5] d[11][5] s[11][6] </args>
      <args> s[11][6] d[11][6] s[11][7] </args>
      <args> s[11][7] d[11][7] s[11][8] </args>
      <args> s[11][8] d[11][8] s[11][9] </args>
      <args> s[11][9] d[11][9] s[11][10] </args>
      <args> s[11][10] d[11][10] s[11][11] </args>
      <args> s[11][11] d[11][11] s[11][12] </args>
      <args> s[11][12] d[11][12] s[11][13] </args>
      <args> s[11][13] d[11][13] s[11][14] </args>
      <args> s[12][0] d[12][0] s[12][1] </args>
      <args> s[12][1] d[12][1] s[12][2] </args>
      <args> s[12][2] d[12][2] s[12][3] </args>
      <args> s[12][3] d[12][3] s[12][4] </args>
      <args> s[12][4] d[12][4] s[12][5] </args>
      <args> s[12][5] d[12][5] s[12][6] </args>
      <args> s[12][6] d[12][6] s[12][7] </args>
      <args> s[12][7] d[12][7] s[12][8] </args>
      <args> s[12][8] d[12][8] s[12][9] </args>
      <args> s[12][9] d[12][9] s[12][10] </args>
      <args> s[12][10] d[12][10] s[12][11] </args>
      <args> s[12][11] d[12][11] s[12][12] </args>
      <args> s[12][12] d[12][12] s[12][13] </args>
      <args> s[12][13] d[12][13] s[12][14] </args>
      <args> s[13][0] d[13][0] s[13][1] </args>
      <args> s[13][1] d[13][1] s[13][2] </args>
      <args> s[13][2] d[13][2] s[13][3] </args>
      <args> s[13][3] d[13][3] s[13][4] </args>
      <args> s[13][4] d[13][4] s[13][5] </args>
      <args> s[13][5] d[13][5] s[13][6] </args>
      <args> s[13][6] d[13][6] s[13][7] </args>
      <args> s[13][7] d[13][7] s[13][8] </args>
      <args> s[13][8] d[13][8] s[13][9] </args>
      <args> s[13][9] d[13][9] s[13][10] </args>
      <args> s[13][10] d[13][10] s[13][11] </args>
      <args> s[13][11] d[13][11] s[13][12] </args>
      <args> s[13][12] d[13][12] s[13][13] </args>
      <args> s[13][13] d[13][13] s[13][14] </args>
      <args> s[14][0] d[14][0] s[14][1] </args>
      <args> s[14][1] d[14][1] s[14][2] </args>
      <args> s[14][2] d[14][2] s[14][3] </args>
      <args> s[14][3] d[14][3] s[14][4] </args>
      <args> s[14][4] d[14][4] s[14][5] </args>
      <args> s[14][5] d[14][5] s[14][6] </args>
      <args> s[14][6] d[14][6] s[14][7] </args>
      <args> s[14][7] d[14][7] s[14][8] </args>
      <args> s[14][8] d[14][8] s[14][9] </args>
      <args> s[14][9] d[14][9] s[14][10] </args>
      <args> s[14][10] d[14][10] s[14][11] </args>
      <args> s[14][11] d[14][11] s[14][12] </args>
      <args> s[14][12] d[14][12] s[14][13] </args>
      <args> s[14][13] d[14][13] s[14][14] </args>
    </group>
    <block class="channeling">
      <group>
        <element>
          <list> sd[0][] </list>
          <index> %0 </index>
          <value> %1 </value>
        </element>
        <args> w[0][0] s[0][0] </args>
        <args> w[0][1] s[0][1] </args>
        <args> w[0][2] s[0][2] </args>
        <args> w[0][3] s[0][3] </args>
        <args> w[0][4] s[0][4] </args>
        <args> w[0][5] s[0][5] </args>
        <args> w[0][6] s[0][6] </args>
        <args> w[0][7] s[0][7] </args>
        <args> w[0][8] s[0][8] </args>
        <args> w[0][9] s[0][9] </args>
        <args> w[0][10] s[0][10] </args>
        <args> w[0][11] s[0][11] </args>
        <args> w[0][12] s[0][12] </args>
        <args> w[0][13] s[0][13] </args>
        <args> w[0][14] s[0][14] </args>
      </group>
      <group>
        <element>
          <list> sd[1][] </list>
          <index> %0 </index>
          <value> %1 </value>
        </element>
        <args> w[1][0] s[1][0] </args>
        <args> w[1][1] s[1][1] </args>
        <args> w[1][2] s[1][2] </args>
        <args> w[1][3] s[1][3] </args>
        <args> w[1][4] s[1][4] </args>
        <args> w[1][5] s[1][5] </args>
        <args> w[1][6] s[1][6] </args>
        <args> w[1][7] s[1][7] </args>
        <args> w[1][8] s[1][8] </args>
        <args> w[1][9] s[1][9] </args>
        <args> w[1][10] s[1][10] </args>
        <args> w[1][11] s[1][11] </args>
        <args> w[1][12] s[1][12] </args>
        <args> w[1][13] s[1][13] </args>
        <args> w[1][14] s[1][14] </args>
      </group>
      <group>
        <element>
          <list> sd[2][] </list>
          <index> %0 </index>
          <value> %1 </value>
        </element>
        <args> w[2][0] s[2][0] </args>
        <args> w[2][1] s[2][1] </args>
        <args> w[2][2] s[2][2] </args>
        <args> w[2][3] s[2][3] </args>
        <args> w[2][4] s[2][4] </args>
        <args> w[2][5] s[2][5] </args>
        <args> w[2][6] s[2][6] </args>
        <args> w[2][7] s[2][7] </args>
        <args> w[2][8] s[2][8] </args>
        <args> w[2][9] s[2][9] </args>
        <args> w[2][10] s[2][10] </args>
        <args> w[2][11] s[2][11] </args>
        <args> w[2][12] s[2][12] </args>
        <args> w[2][13] s[2][13] </args>
        <args> w[2][14] s[2][14] </args>
      </group>
      <group>
        <element>
          <list> sd[3][] </list>
          <index> %0 </index>
          <value> %1 </value>
        </element>
        <args> w[3][0] s[3][0] </args>
        <args> w[3][1] s[3][1] </args>
        <args> w[3][2] s[3][2] </args>
        <args> w[3][3] s[3][3] </args>
        <args> w[3][4] s[3][4] </args>
        <args> w[3][5] s[3][5] </args>
        <args> w[3][6] s[3][6] </args>
        <args> w[3][7] s[3][7] </args>
        <args> w[3][8] s[3][8] </args>
        <args> w[3][9] s[3][9] </args>
        <args> w[3][10] s[3][10] </args>
        <args> w[3][11] s[3][11] </args>
        <args> w[3][12] s[3][12] </args>
        <args> w[3][13] s[3][13] </args>
        <args> w[3][14] s[3][14] </args>
      </group>
      <group>
        <element>
          <list> sd[4][] </list>
          <index> %0 </index>
          <value> %1 </value>
        </element>
        <args> w[4][0] s[4][0] </args>
        <args> w[4][1] s[4][1] </args>
        <args> w[4][2] s[4][2] </args>
        <args> w[4][3] s[4][3] </args>
        <args> w[4][4] s[4][4] </args>
        <args> w[4][5] s[4][5] </args>
        <args> w[4][6] s[4][6] </args>
        <args> w[4][7] s[4][7] </args>
        <args> w[4][8] s[4][8] </args>
        <args> w[4][9] s[4][9] </args>
        <args> w[4][10] s[4][10] </args>
        <args> w[4][11] s[4][11] </args>
        <args> w[4][12] s[4][12] </args>
        <args> w[4][13] s[4][13] </args>
        <args> w[4][14] s[4][14] </args>
      </group>
      <group>
        <element>
          <list> sd[5][] </list>
          <index> %0 </index>
          <value> %1 </value>
        </element>
        <args> w[5][0] s[5][0] </args>
        <args> w[5][1] s[5][1] </args>
        <args> w[5][2] s[5][2] </args>
        <args> w[5][3] s[5][3] </args>
        <args> w[5][4] s[5][4] </args>
        <args> w[5][5] s[5][5] </args>
        <args> w[5][6] s[5][6] </args>
        <args> w[5][7] s[5][7] </args>
        <args> w[5][8] s[5][8] </args>
        <args> w[5][9] s[5][9] </args>
        <args> w[5][10] s[5][10] </args>
        <args> w[5][11] s[5][11] </args>
        <args> w[5][12] s[5][12] </args>
        <args> w[5][13] s[5][13] </args>
        <args> w[5][14] s[5][14] </args>
      </group>
      <group>
        <element>
          <list> sd[6][] </list>
          <index> %0 </index>
          <value> %1 </value>
        </element>
        <args> w[6][0] s[6][0] </args>
        <args> w[6][1] s[6][1] </args>
        <args> w[6][2] s[6][2] </args>
        <args> w[6][3] s[6][3] </args>
        <args> w[6][4] s[6][4] </args>
        <args> w[6][5] s[6][5] </args>
        <args> w[6][6] s[6][6] </args>
        <args> w[6][7] s[6][7] </args>
        <args> w[6][8] s[6][8] </args>
        <args> w[6][9] s[6][9] </args>
        <args> w[6][10] s[6][10] </args>
        <args> w[6][11] s[6][11] </args>
        <args> w[6][12] s[6][12] </args>
        <args> w[6][13] s[6][13] </args>
        <args> w[6][14] s[6][14] </args>
      </group>
      <group>
        <element>
          <list> sd[7][] </list>
          <index> %0 </index>
          <value> %1 </value>
        </element>
        <args> w[7][0] s[7][0] </args>
        <args> w[7][1] s[7][1] </args>
        <args> w[7][2] s[7][2] </args>
        <args> w[7][3] s[7][3] </args>
        <args> w[7][4] s[7][4] </args>
        <args> w[7][5] s[7][5] </args>
        <args> w[7][6] s[7][6] </args>
        <args> w[7][7] s[7][7] </args>
        <args> w[7][8] s[7][8] </args>
        <args> w[7][9] s[7][9] </args>
        <args> w[7][10] s[7][10] </args>
        <args> w[7][11] s[7][11] </args>
        <args> w[7][12] s[7][12] </args>
        <args> w[7][13] s[7][13] </args>
        <args> w[7][14] s[7][14] </args>
      </group>
      <group>
        <element>
          <list> sd[8][] </list>
          <index> %0 </index>
          <value> %1 </value>
        </element>
        <args> w[8][0] s[8][0] </args>
        <args> w[8][1] s[8][1] </args>
        <args> w[8][2] s[8][2] </args>
        <args> w[8][3] s[8][3] </args>
        <args> w[8][4] s[8][4] </args>
        <args> w[8][5] s[8][5] </args>
        <args> w[8][6] s[8][6] </args>
        <args> w[8][7] s[8][7] </args>
        <args> w[8][8] s[8][8] </args>
        <args> w[8][9] s[8][9] </args>
        <args> w[8][10] s[8][10] </args>
        <args> w[8][11] s[8][11] </args>
        <args> w[8][12] s[8][12] </args>
        <args> w[8][13] s[8][13] </args>
        <args> w[8][14] s[8][14] </args>
      </group>
      <group>
        <element>
          <list> sd[9][] </list>
          <index> %0 </index>
          <value> %1 </value>
        </element>
        <args> w[9][0] s[9][0] </args>
        <args> w[9][1] s[9][1] </args>
        <args> w[9][2] s[9][2] </args>
        <args> w[9][3] s[9][3] </args>
        <args> w[9][4] s[9][4] </args>
        <args> w[9][5] s[9][5] </args>
        <args> w[9][6] s[9][6] </args>
        <args> w[9][7] s[9][7] </args>
        <args> w[9][8] s[9][8] </args>
        <args> w[9][9] s[9][9] </args>
        <args> w[9][10] s[9][10] </args>
        <args> w[9][11] s[9][11] </args>
        <args> w[9][12] s[9][12] </args>
        <args> w[9][13] s[9][13] </args>
        <args> w[9][14] s[9][14] </args>
      </group>
      <group>
        <element>
          <list> sd[10][] </list>
          <index> %0 </index>
          <value> %1 </value>
        </element>
        <args> w[10][0] s[10][0] </args>
        <args> w[10][1] s[10][1] </args>
        <args> w[10][2] s[10][2] </args>
        <args> w[10][3] s[10][3] </args>
        <args> w[10][4] s[10][4] </args>
        <args> w[10][5] s[10][5] </args>
        <args> w[10][6] s[10][6] </args>
        <args> w[10][7] s[10][7] </args>
        <args> w[10][8] s[10][8] </args>
        <args> w[10][9] s[10][9] </args>
        <args> w[10][10] s[10][10] </args>
        <args> w[10][11] s[10][11] </args>
        <args> w[10][12] s[10][12] </args>
        <args> w[10][13] s[10][13] </args>
        <args> w[10][14] s[10][14] </args>
      </group>
      <group>
        <element>
          <list> sd[11][] </list>
          <index> %0 </index>
          <value> %1 </value>
        </element>
        <args> w[11][0] s[11][0] </args>
        <args> w[11][1] s[11][1] </args>
        <args> w[11][2] s[11][2] </args>
        <args> w[11][3] s[11][3] </args>
        <args> w[11][4] s[11][4] </args>
        <args> w[11][5] s[11][5] </args>
        <args> w[11][6] s[11][6] </args>
        <args> w[11][7] s[11][7] </args>
        <args> w[11][8] s[11][8] </args>
        <args> w[11][9] s[11][9] </args>
        <args> w[11][10] s[11][10] </args>
        <args> w[11][11] s[11][11] </args>
        <args> w[11][12] s[11][12] </args>
        <args> w[11][13] s[11][13] </args>
        <args> w[11][14] s[11][14] </args>
      </group>
      <group>
        <element>
          <list> sd[12][] </list>
          <index> %0 </index>
          <value> %1 </value>
        </element>
        <args> w[12][0] s[12][0] </args>
        <args> w[12][1] s[12][1] </args>
        <args> w[12][2] s[12][2] </args>
        <args> w[12][3] s[12][3] </args>
        <args> w[12][4] s[12][4] </args>
        <args> w[12][5] s[12][5] </args>
        <args> w[12][6] s[12][6] </args>
        <args> w[12][7] s[12][7] </args>
        <args> w[12][8] s[12][8] </args>
        <args> w[12][9] s[12][9] </args>
        <args> w[12][10] s[12][10] </args>
        <args> w[12][11] s[12][11] </args>
        <args> w[12][12] s[12][12] </args>
        <args> w[12][13] s[12][13] </args>
        <args> w[12][14] s[12][14] </args>
      </group>
      <group>
        <element>
          <list> sd[13][] </list>
          <index> %0 </index>
          <value> %1 </value>
        </element>
        <args> w[13][0] s[13][0] </args>
        <args> w[13][1] s[13][1] </args>
        <args> w[13][2] s[13][2] </args>
        <args> w[13][3] s[13][3] </args>
        <args> w[13][4] s[13][4] </args>
        <args> w[13][5] s[13][5] </args>
        <args> w[13][6] s[13][6] </args>
        <args> w[13][7] s[13][7] </args>
        <args> w[13][8] s[13][8] </args>
        <args> w[13][9] s[13][9] </args>
        <args> w[13][10] s[13][10] </args>
        <args> w[13][11] s[13][11] </args>
        <args> w[13][12] s[13][12] </args>
        <args> w[13][13] s[13][13] </args>
        <args> w[13][14] s[13][14] </args>
      </group>
      <group>
        <element>
          <list> sd[14][] </list>
          <index> %0 </index>
          <value> %1 </value>
        </element>
        <args> w[14][0] s[14][0] </args>
        <args> w[14][1] s[14][1] </args>
        <args> w[14][2] s[14][2] </args>
        <args> w[14][3] s[14][3] </args>
        <args> w[14][4] s[14][4] </args>
        <args> w[14][5] s[14][5] </args>
        <args> w[14][6] s[14][6] </args>
        <args> w[14][7] s[14][7] </args>
        <args> w[14][8] s[14][8] </args>
        <args> w[14][9] s[14][9] </args>
        <args> w[14][10] s[14][10] </args>
        <args> w[14][11] s[14][11] </args>
        <args> w[14][12] s[14][12] </args>
        <args> w[14][13] s[14][13] </args>
        <args> w[14][14] s[14][14] </args>
      </group>
    </block>
    <block>
      <noOverlap>
        <origins> sd[][0] </origins>
        <lengths> 8 42 29 52 42 63 13 57 81 85 46 60 11 14 88 </lengths>
      </noOverlap>
      <noOverlap>
        <origins> sd[][1] </origins>
        <lengths> 6 57 11 16 2 4 16 1 86 75 51 75 3 90 13 </lengths>
      </noOverlap>
      <noOverlap>
        <origins> sd[][2] </origins>
        <lengths> 61 74 5 37 28 93 84 78 59 10 50 31 62 27 77 </lengths>
      </noOverlap>
      <noOverlap>
        <origins> sd[][3] </origins>
        <lengths> 32 53 85 95 14 93 37 51 11 70 5 57 50 84 41 </lengths>
      </noOverlap>
      <noOverlap>
        <origins> sd[][4] </origins>
        <lengths> 45 22 79 79 84 46 39 55 83 92 97 20 38 35 51 </lengths>
      </noOverlap>
      <noOverlap>
        <origins> sd[][5] </origins>
        <lengths> 83 55 17 11 21 82 85 85 23 25 78 5 47 75 36 </lengths>
      </noOverlap>
      <noOverlap>
        <origins> sd[][6] </origins>
        <lengths> 9 1 84 61 13 52 99 81 73 72 60 22 35 99 88 </lengths>
      </noOverlap>
      <noOverlap>
        <origins> sd[][7] </origins>
        <lengths> 24 38 74 89 10 22 94 90 99 75 74 7 96 93 14 </lengths>
      </noOverlap>
      <noOverlap>
        <origins> sd[][8] </origins>
        <lengths> 26 92 30 95 74 46 66 32 39 66 89 61 34 98 10 </lengths>
      </noOverlap>
      <noOverlap>
        <origins> sd[][9] </origins>
        <lengths> 43 54 95 78 76 6 61 64 22 2 12 20 39 21 96 </lengths>
      </noOverlap>
      <noOverlap>
        <origins> sd[][10] </origins>
        <lengths> 99 61 45 55 8 22 94 56 43 43 62 20 90 58 67 </lengths>
      </noOverlap>
      <noOverlap>
        <origins> sd[][11] </origins>
        <lengths> 4 25 30 56 82 30 2 39 18 4 12 24 80 53 33 </lengths>
      </noOverlap>
      <noOverlap>
        <origins> sd[][12] </origins>
        <lengths> 11 14 9 12 35 43 18 59 94 97 59 60 91 83 52 </lengths>
      </noOverlap>
      <noOverlap>
        <origins> sd[][13] </origins>
        <lengths> 97 70 65 95 7 9 69 72 40 63 33 44 95 37 30 </lengths>
      </noOverlap>
      <noOverlap>
        <origins> sd[][14] </origins>
        <lengths> 33 62 38 12 1 72 62 64 33 72 79 34 38 29 46 </lengths>
      </noOverlap>
    </block>
    <group class="redundantConstraints">
      <intension> ge(%0,%1) </intension>
      <args> e[0] 581 </args>
      <args> e[1] 720 </args>
      <args> e[2] 696 </args>
      <args> e[3] 843 </args>
      <args> e[4] 497 </args>
      <args> e[5] 683 </args>
      <args> e[6] 839 </args>
      <args> e[7] 884 </args>
      <args> e[8] 804 </args>
      <args> e[9] 851 </args>
      <args> e[10] 807 </args>
      <args> e[11] 540 </args>
      <args> e[12] 809 </args>
      <args> e[13] 896 </args>
      <args> e[14] 742 </args>
    </group>
  </constraints>
  <objectives>
    <minimize type="maximum"> e[] </minimize>
  </objectives>
</instance>
